25
1 0 5
2 0 4
2 1 5
3 0 1
3 1 1
3 2 1
4 0 4
4 1 5
4 2 4
4 3 2
5 0 5
5 1 3
5 2 1
5 3 2
5 4 4
6 0 3
6 1 2
6 2 4
6 3 5
6 4 1
6 5 5
7 0 5
7 1 5
7 2 2
7 3 1
7 4 3
7 5 4
7 6 1
8 0 5
8 1 4
8 2 2
8 3 2
8 4 1
8 5 3
8 6 2
8 7 1
9 0 4
9 1 3
9 2 3
9 3 1
9 4 1
9 5 4
9 6 1
9 7 5
9 8 2
10 0 4
10 1 5
10 2 2
10 3 2
10 4 4
10 5 5
10 6 5
10 7 1
10 8 2
10 9 4
11 0 1
11 1 1
11 2 5
11 3 4
11 4 5
11 5 4
11 6 2
11 7 5
11 8 3
11 9 3
11 10 3
12 0 2
12 1 4
12 2 4
12 3 1
12 4 1
12 5 2
12 6 4
12 7 4
12 8 4
12 9 4
12 10 4
12 11 3
13 0 2
13 1 3
13 2 3
13 3 4
13 4 2
13 5 5
13 6 4
13 7 4
13 8 5
13 9 1
13 10 3
13 11 3
13 12 3
14 0 1
14 1 3
14 2 5
14 3 1
14 4 1
14 5 4
14 6 3
14 7 3
14 8 5
14 9 5
14 10 5
14 11 4
14 12 2
14 13 3
15 0 4
15 1 2
15 2 4
15 3 3
15 4 3
15 5 3
15 6 1
15 7 5
15 8 1
15 9 5
15 10 4
15 11 5
15 12 5
15 13 2
15 14 2
16 0 1
16 1 3
16 2 5
16 3 4
16 4 5
16 5 2
16 6 4
16 7 4
16 8 3
16 9 2
16 10 1
16 11 2
16 12 2
16 13 1
16 14 3
16 15 1
17 0 4
17 1 5
17 2 4
17 3 2
17 4 2
17 5 1
17 6 5
17 7 4
17 8 3
17 9 3
17 10 3
17 11 1
17 12 1
17 13 5
17 14 4
17 15 5
17 16 4
18 0 3
18 1 5
18 2 3
18 3 2
18 4 1
18 5 2
18 6 4
18 7 4
18 8 5
18 9 1
18 10 1
18 11 1
18 12 1
18 13 3
18 14 1
18 15 2
18 16 2
18 17 2
19 0 3
19 1 4
19 2 2
19 3 5
19 4 3
19 5 2
19 6 1
19 7 4
19 8 3
19 9 1
19 10 3
19 11 2
19 12 3
19 13 1
19 14 3
19 15 1
19 16 4
19 17 5
19 18 1
20 0 4
20 1 1
20 2 4
20 3 2
20 4 5
20 5 3
20 6 1
20 7 3
20 8 2
20 9 5
20 10 3
20 11 2
20 12 2
20 13 1
20 14 5
20 15 1
20 16 3
20 17 1
20 18 4
20 19 2
21 0 1
21 1 1
21 2 4
21 3 5
21 4 1
21 5 4
21 6 1
21 7 2
21 8 2
21 9 5
21 10 3
21 11 3
21 12 2
21 13 5
21 14 5
21 15 5
21 16 5
21 17 3
21 18 1
21 19 3
21 20 4
22 0 3
22 1 4
22 2 2
22 3 3
22 4 4
22 5 5
22 6 3
22 7 4
22 8 4
22 9 3
22 10 5
22 11 4
22 12 1
22 13 1
22 14 4
22 15 3
22 16 4
22 17 4
22 18 2
22 19 3
22 20 3
22 21 4
23 0 1
23 1 1
23 2 1
23 3 1
23 4 2
23 5 3
23 6 3
23 7 4
23 8 5
23 9 2
23 10 2
23 11 2
23 12 5
23 13 2
23 14 4
23 15 1
23 16 4
23 17 1
23 18 1
23 19 3
23 20 2
23 21 5
23 22 1
24 0 1
24 1 2
24 2 3
24 3 2
24 4 5
24 5 3
24 6 1
24 7 5
24 8 1
24 9 5
24 10 2
24 11 3
24 12 2
24 13 3
24 14 4
24 15 3
24 16 3
24 17 5
24 18 5
24 19 1
24 20 2
24 21 2
24 22 1
24 23 3
